142
65
75
109
148
97
146
118
178
26
120
21
128
15
74
370
41
57
243
138
86
297
111
13
206
247
39
19
113
271
24
71
99
0
133
44
166
17
112
64
70
11
86
67
63
94
0
138
170
112
22
62
11
173
55
84
93
64
248
24
41
98
32
33
32
100
29
114
223
21
36
39
193
86
202
71
28
15
74
155
85
0
244
90
159
258
293
99
16
98
137
170
127
132
81
100
93
63
135
45
